data/CVRPLIB/Vrp-Set-XML100/instances/XML100_3213_09.vrp
NAME : XML100_3213_09
COMMENT : Generated by Queiroga, Sadykov, Uchoa, and Vidal (2021)
TYPE : CVRP
DIMENSION : 101
EDGE_WEIGHT_TYPE : EUC_2D
CAPACITY : 10
NODE_COORD_SECTION
1    0    0   
2    774  423 
3    870  352 
4    245  799 
5    587  47  
6    192  893 
7    791  121 
8    441  184 
9    831  187 
10   915  131 
11   30   990 
12   424  81  
13   376  245 
14   416  156 
15   543  651 
16   435  806 
17   430  958 
18   452  45  
19   416  176 
20   513  733 
21   868  383 
22   833  417 
23   353  116 
24   461  140 
25   888  317 
26   469  835 
27   755  66  
28   232  839 
29   946  447 
30   145  891 
31   548  801 
32   614  100 
33   368  48  
34   430  100 
35   890  330 
36   701  43  
37   160  902 
38   844  95  
39   276  69  
40   375  691 
41   715  86  
42   651  283 
43   842  351 
44   799  267 
45   723  48  
46   557  625 
47   559  18  
48   811  335 
49   954  498 
50   560  805 
51   959  507 
52   850  60  
53   193  839 
54   501  857 
55   578  43  
56   454  213 
57   709  277 
58   710  118 
59   346  208 
60   419  753 
61   958  216 
62   593  772 
63   440  105 
64   289  118 
65   498  739 
66   98   937 
67   915  698 
68   306  849 
69   597  650 
70   425  689 
71   356  254 
72   938  648 
73   275  624 
74   133  761 
75   517  655 
76   158  830 
77   197  904 
78   169  957 
79   236  890 
80   821  92  
81   958  497 
82   435  909 
83   913  237 
84   588  802 
85   415  743 
86   817  348 
87   534  847 
88   35   885 
89   827  720 
90   605  108 
91   888  244 
92   606  737 
93   988  478 
94   818  229 
95   633  775 
96   182  925 
97   743  135 
98   87   885 
99   905  612 
100  135  873 
101  751  81  
DEMAND_SECTION
1    0   
2    1   
3    1   
4    1   
5    1   
6    1   
7    1   
8    1   
9    1   
10   1   
11   1   
12   1   
13   1   
14   1   
15   1   
16   1   
17   1   
18   1   
19   1   
20   1   
21   1   
22   1   
23   1   
24   1   
25   1   
26   1   
27   1   
28   1   
29   1   
30   1   
31   1   
32   1   
33   1   
34   1   
35   1   
36   1   
37   1   
38   1   
39   1   
40   1   
41   1   
42   1   
43   1   
44   1   
45   1   
46   1   
47   1   
48   1   
49   1   
50   1   
51   1   
52   1   
53   1   
54   1   
55   1   
56   1   
57   1   
58   1   
59   1   
60   1   
61   1   
62   1   
63   1   
64   1   
65   1   
66   1   
67   1   
68   1   
69   1   
70   1   
71   1   
72   1   
73   1   
74   1   
75   1   
76   1   
77   1   
78   1   
79   1   
80   1   
81   1   
82   1   
83   1   
84   1   
85   1   
86   1   
87   1   
88   1   
89   1   
90   1   
91   1   
92   1   
93   1   
94   1   
95   1   
96   1   
97   1   
98   1   
99   1   
100  1   
101  1   
DEPOT_SECTION
1
-1
EOF
