data/CVRPLIB/Vrp-Set-XML100/solutions/XML100_3213_09.sol
Route #1: 38 22 13 18 7 55 12 70 58 63
Route #2: 41 47 85 42 24 34 2 20 21 1
Route #3: 73 75 99 29 36 5 52 27 3 72
Route #4: 11 33 62 23 89 31 4 54 17 32
Route #5: 68 88 66 71 98 50 48 80 92 28
Route #6: 56 43 93 90 82 60 9 8 96 57
Route #7: 84 59 15 25 81 16 53 86 64 69
Route #8: 45 14 91 94 61 83 49 30 19 74
Route #9: 39 67 78 76 95 77 65 10 87 97
Route #10: 46 35 44 26 51 37 79 6 100 40
Cost 19595
